205 5
10 10 10 10 10 

0 0 0 0 0 0 3 2 14 26 
0 0 0 0 0 0 7 3 7 8 9 10 11 12 
8 0 0 2 0 0 2 6 4 
9 0 0 9 0 0 1 5 
2 0 0 7 0 0 1 13 
4 0 0 7 0 0 1 13 
7 0 0 8 0 0 1 13 
6 0 0 10 0 0 1 13 
2 0 0 8 0 0 1 13 
8 0 0 9 0 0 2 13 85 
3 0 0 5 0 0 1 13 
6 0 0 10 0 0 1 13 
0 0 0 0 0 0 1 38 
0 0 0 0 0 0 6 15 18 19 20 23 24 
1 9 0 0 0 0 2 17 16 
7 7 0 0 0 0 2 22 21 
6 2 0 0 0 0 2 22 21 
8 6 0 0 0 0 1 21 
2 10 0 0 0 0 2 21 158 
2 9 0 0 0 0 1 21 
5 10 0 0 0 0 1 25 
3 6 0 0 0 0 1 25 
2 7 0 0 0 0 1 25 
8 9 0 0 0 0 1 25 
0 0 0 0 0 0 1 38 
0 0 0 0 0 0 5 27 29 34 35 36 
3 8 0 0 0 0 2 28 59 
10 5 0 0 0 0 4 33 32 31 30 
3 5 0 0 0 0 3 32 31 30 
5 4 0 0 0 0 1 37 
10 10 0 0 0 0 1 37 
8 8 0 0 0 0 1 37 
3 10 0 0 0 0 1 37 
3 8 0 0 0 0 1 37 
2 10 0 0 0 0 1 37 
4 7 0 0 0 0 1 37 
0 0 0 0 0 0 1 38 
0 0 0 0 0 0 3 39 51 63 
0 0 0 0 0 0 4 40 41 42 45 
4 0 0 0 5 0 4 49 48 44 43 
5 0 0 0 6 0 2 48 46 
8 0 0 0 7 0 1 43 
8 0 0 0 6 0 1 47 
7 0 0 0 9 0 1 46 
2 0 0 0 7 0 1 46 
9 0 0 0 10 0 1 50 
3 0 0 0 10 0 1 50 
7 0 0 0 10 0 2 50 131 
6 0 0 0 5 0 1 50 
0 0 0 0 0 0 1 75 
0 0 0 0 0 0 5 52 53 54 55 57 
8 0 0 3 0 0 4 61 60 59 58 
5 0 0 5 0 0 3 61 59 58 
4 0 0 5 0 0 2 59 56 
2 0 0 8 0 0 1 56 
9 0 0 10 0 0 1 58 
1 0 0 7 0 0 1 60 
1 0 0 10 0 0 1 62 
4 0 0 7 0 0 2 62 202 
3 0 0 10 0 0 1 62 
9 0 0 10 0 0 1 62 
0 0 0 0 0 0 1 75 
0 0 0 0 0 0 5 64 66 67 68 73 
4 0 0 0 6 0 3 72 70 65 
4 0 0 0 4 0 1 71 
1 0 0 0 9 0 1 70 
6 0 0 0 9 0 1 69 
6 0 0 0 7 0 1 69 
10 0 0 0 4 0 1 74 
5 0 0 0 6 0 2 74 133 
4 0 0 0 10 0 1 74 
7 0 0 0 10 0 1 74 
4 0 0 0 10 0 1 74 
0 0 0 0 0 0 1 75 
0 0 0 0 0 0 3 76 88 100 
0 0 0 0 0 0 5 77 78 80 81 86 
10 0 0 0 3 0 3 85 84 83 
10 0 0 0 8 0 2 84 79 
2 0 0 0 8 0 2 82 143 
8 0 0 0 4 0 1 83 
8 0 0 0 7 0 1 82 
2 0 0 0 10 0 1 87 
10 0 0 0 8 0 1 87 
5 0 0 0 9 0 1 87 
5 0 0 0 8 0 1 87 
5 0 0 0 10 0 1 87 
0 0 0 0 0 0 1 112 
0 0 0 0 0 0 3 89 90 98 
4 0 3 0 0 0 3 97 93 91 
5 0 4 0 0 0 4 96 95 93 92 
5 0 10 0 0 0 3 94 92 203 
8 0 9 0 0 0 1 99 
7 0 9 0 0 0 1 99 
3 0 6 0 0 0 1 99 
10 0 10 0 0 0 1 99 
5 0 8 0 0 0 1 99 
6 0 6 0 0 0 1 99 
10 0 10 0 0 0 1 99 
0 0 0 0 0 0 1 112 
0 0 0 0 0 0 4 101 102 104 105 
4 0 3 0 0 0 2 110 103 
8 0 10 0 0 0 5 110 109 108 107 106 
3 0 7 0 0 0 4 109 108 107 106 
9 0 7 0 0 0 3 108 107 106 
1 0 8 0 0 0 1 106 
2 0 9 0 0 0 2 111 152 
1 0 5 0 0 0 1 111 
8 0 10 0 0 0 1 111 
2 0 6 0 0 0 1 111 
1 0 10 0 0 0 1 111 
0 0 0 0 0 0 1 112 
0 0 0 0 0 0 3 113 135 147 
0 0 0 0 0 0 9 114 115 116 117 118 119 120 122 125 
9 4 0 0 0 2 3 133 127 121 
6 8 0 0 0 5 3 133 127 121 
6 7 0 0 0 8 3 133 127 123 
1 10 0 0 0 9 2 133 121 
7 4 0 0 0 7 5 133 132 128 127 126 
10 8 0 0 0 8 4 133 132 128 124 
7 7 0 0 0 10 4 133 128 127 124 
6 9 0 0 0 10 3 132 128 124 
10 4 0 0 0 4 3 132 131 124 
1 10 0 0 0 5 2 132 124 
1 5 0 0 0 10 1 126 
5 4 0 0 0 5 1 126 
6 8 0 0 0 6 2 130 129 
5 6 0 0 0 10 2 131 129 
7 7 0 0 0 10 2 131 200 
8 9 0 0 0 6 1 134 
2 10 0 0 0 10 1 134 
3 10 0 0 0 8 1 134 
5 10 0 0 0 7 1 134 
10 10 0 0 0 10 1 134 
0 0 0 0 0 0 1 205 
0 0 0 0 0 0 3 136 137 138 
8 0 0 2 0 0 4 142 141 140 139 
5 0 0 4 0 0 3 142 141 140 
7 0 0 10 0 0 3 143 140 139 
5 0 0 7 0 0 2 145 144 
7 0 0 8 0 0 1 144 
7 0 0 6 0 0 1 145 
6 0 0 10 0 0 1 144 
8 0 0 9 0 0 1 144 
1 0 0 9 0 0 1 146 
4 0 0 10 0 0 1 146 
0 0 0 0 0 0 3 169 181 193 
0 0 0 0 0 0 6 148 149 150 151 152 155 
5 0 0 2 5 0 3 167 154 153 
4 0 0 9 7 0 3 167 160 154 
5 0 0 10 7 0 2 156 153 
8 0 0 10 5 0 5 167 166 159 158 157 
4 0 0 10 10 0 5 167 166 161 160 157 
6 0 0 5 10 0 4 166 161 160 157 
9 0 0 10 8 0 4 166 161 158 157 
3 0 0 6 10 0 4 166 161 160 157 
10 0 0 6 8 0 3 167 164 161 
3 0 0 10 9 0 3 165 164 163 
10 0 0 7 10 0 2 164 162 
10 0 0 6 5 0 2 165 161 
10 0 0 8 10 0 1 162 
6 0 0 10 10 0 1 163 
10 0 0 3 6 0 1 163 
9 0 0 10 8 0 1 168 
4 0 0 6 2 0 1 168 
6 0 0 9 7 0 1 168 
10 0 0 7 6 0 1 168 
4 0 0 6 7 0 1 168 
0 0 0 0 0 0 1 205 
0 0 0 0 0 0 5 170 171 173 174 175 
4 0 3 0 0 0 1 172 
9 0 10 0 0 0 1 172 
5 0 3 0 0 0 4 179 178 177 176 
4 0 10 0 0 0 3 179 177 176 
10 0 8 0 0 0 2 178 177 
3 0 7 0 0 0 1 176 
4 0 10 0 0 0 1 180 
3 0 6 0 0 0 1 180 
3 0 8 0 0 0 1 180 
9 0 10 0 0 0 1 180 
0 0 0 0 0 0 1 205 
0 0 0 0 0 0 3 182 183 184 
2 0 0 1 0 0 5 189 188 187 186 185 
9 0 0 6 0 0 5 189 188 187 186 185 
8 0 0 9 0 0 5 189 188 187 186 185 
3 0 0 10 0 0 2 191 190 
2 0 0 3 0 0 2 191 190 
3 0 0 8 0 0 2 191 190 
7 0 0 9 0 0 2 191 190 
8 0 0 10 0 0 2 191 190 
9 0 0 9 0 0 1 192 
1 0 0 10 0 0 1 192 
0 0 0 0 0 0 1 205 
0 0 0 0 0 0 6 194 196 197 201 202 203 
3 0 0 0 1 0 1 195 
10 0 0 0 9 0 1 198 
7 0 0 0 7 0 1 200 
8 0 0 0 10 0 1 199 
5 0 0 0 5 0 1 204 
6 0 0 0 6 0 1 204 
6 0 0 0 10 0 1 204 
8 0 0 0 9 0 1 204 
10 0 0 0 9 0 1 204 
1 0 0 0 9 0 1 204 
0 0 0 0 0 0 1 205 
0 0 0 0 0 0 0 
